50
150
98
98
96
95
94
93
92
91
89
88
88
88
86
83
83
82
80
79
78
76
76
75
73
67
63
63
62
55
54
53
52
51
51
51
47
45
45
42
42
40
37
37
36
36
29
29
25
24
20
20
